# FENE bead-spring polymer chains
# 瓶颈: pair + bond + neighbor (高密度聚合物)
# 特点: 键相互作用显著, 邻居列表更新频繁

units           lj
atom_style      bond
special_bonds   fene

read_data       ../../third_party/lammps/bench/data.chain

# 复制系统 2x2x2 = 8倍原子数
replicate       2 2 2

neighbor        0.4 bin
neigh_modify    every 1 delay 1

bond_style      fene
bond_coeff      1 30.0 1.5 1.0 1.0

pair_style      lj/cut 1.12
pair_modify     shift yes
pair_coeff      1 1 1.0 1.0 1.12

fix             1 all nve
fix             2 all langevin 1.0 1.0 10.0 904297

thermo          100
thermo_style    custom step temp pe ke etotal press
timestep        0.012

# 2000 步, 预计运行 30-60 秒
run             2000
